c [MSE2022] -- begin -- [MSE2022]
0.00/0.01	c
0.00/0.01	c NuWLS based on TT-Open-WBO-Inc:	 an Anytime MaxSAT Solver --- based on Glucose4.1 (core version)
0.00/0.01	c Version:	 MaxSAT Evaluation 2021
0.00/0.01	c Author of NuWLS:	 Yi Chu, Xiang He
0.00/0.01	c Author of TT-Open-WBO-Inc:	 Alexander Nadel
0.00/0.01	c Authors of the baseline solver Open-WBO-Inc:	 Saurabh Joshi, Prateek Kumar, Ruben Martins, Sukrut Rao
0.00/0.01	c WARNING: for repeatability, setting FPU to use double precision
0.00/0.01	c |                                                                                                       |
0.00/0.01	c ========================================[ Problem Statistics ]===========================================
0.00/0.01	c |                                                                                                       |
0.00/0.01	c |  Problem Format:             MaxSAT                                                                   |
0.00/0.01	c |  Problem Type:           Unweighted                                                                   |
0.00/0.01	c |  Number of variables:          1935                                                                   |
0.00/0.01	c |  Number of hard clauses:          0                                                                   |
0.00/0.01	c |  Number of soft clauses:       5319                                                                   |
0.00/0.01	c |  Number of cardinality:           0                                                                   |
0.00/0.01	c |  Number of PB :                   0                                                                   |
0.00/0.01	c |  Parse time:                   0.00 s                                                                 |
0.00/0.01	c |                                                                                                       |
0.00/0.01	c | best-alg-selector overriden target_vars_bump_val to 0, since it hadn't been set by the user |
0.00/0.01	c | best-alg-selector overriden ms_model_per_sec_thr to 2, since it hadn't been set by the user |
0.00/0.01	c | best-alg-selector overriden ms_mutation_classes to 0, since it hadn't been set by the user |
0.00/0.01	c | best-alg-selector overriden ms_chrono to 100, since it hadn't been set by the user |
0.00/0.01	c ==========================================[ Solver Settings ]============================================
0.00/0.01	c |                                                                                                       |
0.00/0.01	c |  Algorithm:                     OBV                                                                   |
0.00/0.01	c |  Cardinality Encoding:       Modulo Totalizer                                                         |
0.00/0.01	c |  Limit number conflicts:       1000                                                                   |
0.00/0.01	c |  Limit number iterations: 2147483647                                                                   |
0.00/0.01	c |  Global limit number conflicts:   F                                                                   |
0.00/0.01	c |                                                                                                       |
0.00/0.01	c Mrs. Beaver incomplete stage
0.00/0.01	o 468
0.00/0.01	c total_lit_count 12573
0.00/0.01	c before build neighbor
0.00/0.01	c build instime is 0
0.00/0.01	c using neighbor 
0.00/0.01	c build NuWLS instance done!
0.00/0.01	c changing to NuWLS solver!!!
0.00/0.01	c problem weighted = 0
0.00/0.01	o 468
0.00/0.01	o 463
0.00/0.01	o 460
0.00/0.01	o 457
0.00/0.01	o 454
0.00/0.01	o 452
0.00/0.01	o 449
0.00/0.01	o 447
0.00/0.01	o 445
0.00/0.01	o 443
0.00/0.01	o 441
0.00/0.01	o 439
0.00/0.01	o 437
0.00/0.01	o 435
0.00/0.01	o 433
0.00/0.01	o 431
0.00/0.01	o 429
0.00/0.01	o 427
0.00/0.01	o 425
0.00/0.01	o 423
0.00/0.01	o 421
0.00/0.01	o 419
0.00/0.01	o 417
0.00/0.01	o 415
0.00/0.01	o 413
0.00/0.01	o 411
0.00/0.01	o 409
0.00/0.01	o 407
0.00/0.01	o 406
0.00/0.01	o 405
0.00/0.01	o 404
0.00/0.01	o 403
0.00/0.01	o 402
0.00/0.01	o 401
0.00/0.01	o 400
0.00/0.01	o 399
0.00/0.01	o 398
0.00/0.01	o 397
0.00/0.01	o 396
0.00/0.01	o 395
0.00/0.01	o 394
0.00/0.01	o 393
0.00/0.01	o 392
0.00/0.01	o 391
0.00/0.01	o 390
0.00/0.01	o 389
0.00/0.01	o 388
0.00/0.01	o 387
0.00/0.01	o 386
0.00/0.01	o 385
0.00/0.01	o 384
0.00/0.01	o 383
0.00/0.01	o 382
0.00/0.01	o 381
0.00/0.01	o 380
0.00/0.01	o 379
0.00/0.01	o 378
0.00/0.01	o 377
0.00/0.01	o 376
0.00/0.01	o 375
0.00/0.01	o 374
0.00/0.01	o 373
0.00/0.01	o 372
0.00/0.01	o 370
0.00/0.01	o 369
0.00/0.01	o 368
0.00/0.01	o 367
0.00/0.01	o 366
0.00/0.01	o 365
0.00/0.01	o 364
0.00/0.01	o 363
0.00/0.01	o 362
0.00/0.01	o 361
0.00/0.01	o 360
0.00/0.01	o 359
0.00/0.01	o 358
0.00/0.01	o 357
0.00/0.01	o 356
0.00/0.01	o 355
0.00/0.01	o 354
0.00/0.01	o 353
0.00/0.01	o 352
0.00/0.01	o 351
0.00/0.01	o 350
0.00/0.01	o 349
0.00/0.01	o 348
0.00/0.01	o 347
0.00/0.01	o 346
0.00/0.01	o 345
0.00/0.01	o 344
0.00/0.01	o 343
0.00/0.01	o 342
0.00/0.01	o 341
0.00/0.01	o 340
0.00/0.01	o 339
0.00/0.01	o 338
0.00/0.01	o 337
0.00/0.02	o 336
0.00/0.02	o 335
0.00/0.02	o 334
0.00/0.02	o 333
0.00/0.02	o 332
0.00/0.02	o 331
0.00/0.02	o 330
0.00/0.02	o 329
0.00/0.02	o 328
0.00/0.02	o 327
0.00/0.02	o 326
0.00/0.02	o 325
0.00/0.02	o 324
0.00/0.02	o 323
0.00/0.02	o 322
0.00/0.02	o 321
0.00/0.02	o 320
0.00/0.02	o 319
0.00/0.02	o 318
0.00/0.02	o 317
0.00/0.02	o 316
0.00/0.02	o 315
0.00/0.02	o 314
0.00/0.02	o 313
0.00/0.02	o 312
0.00/0.02	o 311
0.00/0.02	o 310
0.00/0.02	o 309
0.00/0.02	o 308
0.00/0.02	o 307
0.00/0.02	o 306
0.00/0.02	o 305
0.00/0.02	o 304
0.00/0.02	o 303
0.00/0.02	o 302
0.00/0.02	o 301
0.00/0.02	o 300
0.00/0.02	o 299
0.00/0.02	o 298
0.00/0.02	o 297
0.00/0.02	o 296
0.00/0.02	o 295
0.00/0.02	o 294
0.00/0.02	o 293
0.00/0.02	o 292
0.00/0.02	o 291
0.00/0.02	o 290
0.00/0.02	o 289
0.00/0.02	o 288
0.00/0.02	o 287
0.00/0.02	o 286
0.00/0.02	o 285
0.00/0.02	o 284
0.00/0.02	o 283
0.00/0.02	o 282
0.00/0.02	o 281
0.00/0.02	o 280
0.00/0.02	o 279
0.00/0.02	o 278
0.00/0.02	o 276
0.00/0.02	o 275
0.00/0.02	o 274
0.00/0.02	o 273
0.00/0.02	o 272
0.00/0.02	o 271
0.00/0.02	o 270
0.00/0.02	o 269
0.00/0.02	o 268
0.00/0.02	o 267
0.00/0.02	o 266
0.00/0.02	o 265
0.00/0.02	o 264
0.00/0.02	o 263
0.00/0.02	o 262
0.00/0.02	o 261
0.00/0.02	o 260
0.00/0.02	o 259
0.00/0.02	o 258
0.00/0.02	o 257
0.03/0.04	s SATISFIABLE
0.03/0.04	o 257 
0.03/0.04	v 001110001000001001101111000000010111111001100101110101111001001001011001011010101101000101100000110100001101011010001100100110010010100000001100000100100010011100110100010010011001011111000000010100101011001011111000110001111101110010101101011110101010000010010101010010000011101011000010110011111001001010010110001011000101100000011010101011000010010000010000010000111101001111010111000011110000001100111100001000000111101001010100010011110110001101110001110011110110011111100101111101010110011110101001011110010101000010001101110011100011110000001011000100000101101000111101011001110000010010100100101001100010001011001100111110001010011111110101010001100100100001011011111000011100101000101111010100010010100000101010101101010101100101001011001011101001010101010111111110101010110100101100100010010000001011001001101110110101100101111100010010010100010100010111000101100010010100011110110001110110010111100001100001010111110100000010110011110101000101100001010100011100101001010101001101100001101111010111010011000110000000000011010101100100101000100111111101111001000100010000100110001111000001001111001001011101000110010111011100110010010000010110001011100101111101000101110010000101111101010100010100011011100010001110110000001010101010011010100100010000101001100010100100011001101011001011100101111010000111001101001010000100000101011101111011111010010001001111000101000011101110110001010101101010101100011000010111110100010011110010001001111101100010100001000110000111101100100011110001011111001001011010011110111010101011100010011001000110001110011000000100101000001101010100000100101011110111110001101000111000111100010010000110000110101110110000010110001111000110010000101011001001011110010010001010100000101100000001101000000100010000101000000000010011000100000111110101001101001011010011001000110001101010001100111010111000100000101100101011101010110000010001010111010001000101001111010010100000101000010111000010001111000
c [MSE2022] -- end -- [MSE2022]
